 vasp.5.4.1 24Jun15 (build Dec 27 2015 16:41:11) complex

 executed on             LinuxIFC date 2020.11.20  09:23:54

 INCAR:
 POTCAR:    PAW_PBE Mo_sv 02Feb2006
 POTCAR:    PAW_PBE N 08Apr2002
 POTCAR:    PAW_PBE Si 05Jan2001

 POTCAR:    PAW_PBE Mo_sv 02Feb2006
   VRHFIN =Mo: 4p5s4d

   TITEL  = PAW_PBE Mo_sv 02Feb2006
   POMASS =   95.940; ZVAL   =   14.000    mass and valenz
   ENMAX  =  242.676; ENMIN  =  182.007 eV

 POTCAR:    PAW_PBE N 08Apr2002
   VRHFIN =N: s2p3

   TITEL  = PAW_PBE N 08Apr2002
   POMASS =   14.001; ZVAL   =    5.000    mass and valenz
   ENMAX  =  400.000; ENMIN  =  300.000 eV

 POTCAR:    PAW_PBE Si 05Jan2001
   VRHFIN =Si: s2p2

   TITEL  = PAW_PBE Si 05Jan2001
   POMASS =   28.085; ZVAL   =    4.000    mass and valenz
   ENMAX  =  245.345; ENMIN  =  184.009 eV

 Optimization of the real space projectors (new method)

 maximal supplied QI-value         = 15.12
 optimisation between [QCUT,QGAM] = [ 12.55, 25.10] = [ 44.09,176.36] Ry
 Optimized for a Real-space Cutoff    1.61 Angstroem

   l    n(q)    QCUT    max X(q) W(low)/X(q) W(high)/X(q)  e(spline)
   0     12    12.548     3.559    0.37E-05    0.27E-05    0.23E-06
   0     12    12.548    20.730    0.32E-04    0.37E-05    0.26E-06
   1     12    12.548     3.279    0.14E-06    0.19E-06    0.38E-07
   1     12    12.548     4.693    0.16E-04    0.21E-04    0.34E-06
   2     11    12.548    67.616    0.75E-04    0.14E-03    0.75E-06
   2     11    12.548    62.420    0.75E-04    0.15E-03    0.75E-06
 Optimization of the real space projectors (new method)

[...]

   l    n(q)    QCUT    max X(q) W(low)/X(q) W(high)/X(q)  e(spline)
   0     10    12.315    79.467    0.60E-04    0.26E-05    0.59E-06
   0     10    12.315    66.151    0.59E-04    0.23E-05    0.59E-06
   1     10    12.315    22.077    0.13E-03    0.23E-03    0.74E-06
   1     10    12.315    15.894    0.13E-03    0.24E-03    0.75E-06
 Optimization of the real space projectors (new method)

 maximal supplied QI-value         = 19.84
 optimisation between [QCUT,QGAM] = [ 12.50, 25.00] = [ 43.76,175.03] Ry
 Optimized for a Real-space Cutoff    1.16 Angstroem

   l    n(q)    QCUT    max X(q) W(low)/X(q) W(high)/X(q)  e(spline)
   0      9    12.501   159.560    0.10E-03    0.83E-04    0.71E-07
   0      9    12.501   115.863    0.99E-04    0.81E-04    0.70E-07
   1      8    12.501    88.339    0.20E-03    0.25E-03    0.76E-07
   1      8    12.501    48.592    0.20E-03    0.24E-03    0.75E-07
  PAW_PBE Mo_sv 02Feb2006               :
  PAW_PBE N 08Apr2002                   :
  PAW_PBE Si 05Jan2001                  :

 POSCAR: CONTCAR40
  positions in direct lattice
  velocities in cartesian coordinates
 exchange correlation table for  LEXCH =        8
   RHO(1)=    0.500       N(1)  =     2000
   RHO(2)=  100.500       N(2)  =     4000

 ion  position               nearest neighbor table
   1  0.035  0.000  0.500-  21 2.07  21 2.07  22 2.07  22 2.07   2 2.87   2 2.87
   2  0.073  0.500  0.500-  26 2.09  26 2.09  25 2.09  25 2.09  21 2.16  22 2.16   1 2.87   1 2.87
                             3 2.94   3 2.94
   3  0.112  0.000  0.500-  30 2.09  30 2.09  29 2.09  29 2.09  26 2.10  25 2.10   4 2.92   4 2.92
                             2 2.94   2 2.94
   4  0.151  0.500  0.500-  30 2.09  34 2.09  34 2.09  29 2.09  33 2.09  33 2.09   5 2.92   5 2.92
                             3 2.92   3 2.92
   5  0.190  0.000  0.500-  37 2.09  37 2.09  38 2.09  38 2.09  34 2.09  33 2.09   6 2.91   6 2.91
                             4 2.92   4 2.92
   6  0.229  0.500  0.500-  42 2.09  42 2.09  41 2.09  41 2.09  38 2.09  37 2.09   7 2.91   7 2.91
                             5 2.91   5 2.91
   7  0.267  0.000  0.500-  46 2.09  46 2.09  45 2.09  45 2.09  42 2.09  41 2.09   8 2.91   8 2.91
                             6 2.91   6 2.91
   8  0.306  0.500  0.500-  50 2.09  50 2.09  49 2.09  49 2.09  46 2.09  45 2.09   9 2.91   9 2.91
                             7 2.91   7 2.91
   9  0.345  0.000  0.500-  53 2.09  53 2.09  54 2.09  54 2.09  50 2.09  49 2.09  10 2.91  10 2.91
                             8 2.91   8 2.91
  10  0.384  0.500  0.500-  57 2.09  57 2.09  58 2.09  58 2.09  53 2.09  54 2.09   9 2.91   9 2.91
                            11 2.91  11 2.91
  11  0.422  0.000  0.500-  62 2.09  62 2.09  61 2.09  61 2.09  57 2.09  58 2.09  10 2.91  10 2.91
                            12 2.91  12 2.91
  12  0.461  0.500  0.500-  66 2.09  66 2.09  65 2.09  65 2.09  61 2.09  62 2.09  11 2.91  11 2.91
                            13 2.91  13 2.91
  13  0.500  0.000  0.500-  70 2.09  70 2.09  69 2.09  69 2.09  65 2.09  66 2.09  12 2.91  12 2.91
                            14 2.91  14 2.91
  14  0.539  0.500  0.500-  73 2.09  73 2.09  74 2.09  74 2.09  69 2.09  70 2.09  15 2.91  15 2.91
                            13 2.91  13 2.91
  15  0.578  0.000  0.500-  77 2.09  77 2.09  78 2.09  78 2.09  74 2.09  73 2.09  14 2.91  14 2.91
                            16 2.91  16 2.91
  16  0.616  0.500  0.500-  81 2.09  81 2.09  82 2.09  82 2.09  78 2.09  77 2.09  15 2.91  15 2.91
                            17 2.91  17 2.91
  17  0.655  0.000  0.500-  86 2.09  86 2.09  85 2.09  85 2.09  81 2.09  82 2.09  16 2.91  16 2.91
                            18 2.91  18 2.91
  18  0.694  0.500  0.500-  90 2.09  90 2.09  89 2.09  89 2.09  85 2.09  86 2.09  17 2.91  17 2.91
                            19 2.92  19 2.92
  19  0.733  0.000  0.500-  93 2.08  93 2.08  94 2.08  94 2.08  90 2.09  89 2.09  18 2.92  18 2.92
                            20 2.98  20 2.98
  20  0.773  0.500  0.500-  98 2.03  98 2.03  97 2.03  97 2.03  94 2.14  93 2.14  19 2.98  19 2.98

  21  0.046  0.500  0.555- 101 1.77   1 2.07   1 2.07   2 2.16
  22  0.046  0.500  0.445- 102 1.77   1 2.07   1 2.07   2 2.16
  23  0.061  0.000  0.348- 104 1.74 102 1.77 102 1.77
  24  0.061  0.000  0.652- 103 1.74 101 1.77 101 1.77
  25  0.086  0.000  0.554- 103 1.76   2 2.09   2 2.09   3 2.10
  26  0.086  0.000  0.446- 104 1.76   2 2.09   2 2.09   3 2.10
  27  0.100  0.500  0.348- 106 1.75 104 1.75 104 1.75
  28  0.100  0.500  0.651- 105 1.75 103 1.75 103 1.75
  29  0.125  0.500  0.554- 105 1.75   3 2.09   3 2.09   4 2.09
  30  0.125  0.500  0.446- 106 1.75   3 2.09   3 2.09   4 2.09
  31  0.138  0.000  0.348- 106 1.75 106 1.75 108 1.75
  32  0.138  0.000  0.652- 105 1.75 105 1.75 107 1.75
  33  0.164  0.000  0.554- 107 1.75   4 2.09   4 2.09   5 2.09
  34  0.164  0.000  0.446- 108 1.75   4 2.09   4 2.09   5 2.09
  35  0.177  0.500  0.348- 108 1.75 108 1.75 110 1.76
  36  0.177  0.500  0.652- 107 1.75 107 1.75 109 1.76
  37  0.203  0.500  0.554- 109 1.75   5 2.09   5 2.09   6 2.09
  38  0.203  0.500  0.446- 110 1.75   5 2.09   5 2.09   6 2.09
  39  0.216  0.000  0.348- 110 1.75 110 1.75 112 1.76
  40  0.216  0.000  0.652- 109 1.75 109 1.75 111 1.76
  41  0.242  0.000  0.554- 111 1.75   6 2.09   6 2.09   7 2.09
  42  0.242  0.000  0.446- 112 1.75   6 2.09   6 2.09   7 2.09
  43  0.255  0.500  0.348- 112 1.75 112 1.75 114 1.76
  44  0.255  0.500  0.652- 111 1.75 111 1.75 113 1.76
  45  0.280  0.500  0.554- 113 1.75   7 2.09   7 2.09   8 2.09
  46  0.280  0.500  0.446- 114 1.75   7 2.09   7 2.09   8 2.09
  47  0.293  0.000  0.348- 114 1.75 114 1.75 116 1.76
  48  0.293  0.000  0.652- 113 1.75 113 1.75 115 1.76
  49  0.319  0.000  0.554- 115 1.75   8 2.09   8 2.09   9 2.09
  50  0.319  0.000  0.446- 116 1.75   8 2.09   8 2.09   9 2.09
  51  0.332  0.500  0.348- 116 1.75 116 1.75 118 1.76
  52  0.332  0.500  0.652- 115 1.75 115 1.75 117 1.76
  53  0.358  0.500  0.554- 117 1.75   9 2.09   9 2.09  10 2.09
  54  0.358  0.500  0.446- 118 1.75   9 2.09   9 2.09  10 2.09
  55  0.371  0.000  0.348- 118 1.75 118 1.75 120 1.76
  56  0.371  0.000  0.652- 117 1.75 117 1.75 119 1.76
  57  0.397  0.000  0.554- 119 1.75  10 2.09  10 2.09  11 2.09
  58  0.397  0.000  0.446- 120 1.75  10 2.09  10 2.09  11 2.09
  59  0.410  0.500  0.348- 120 1.75 120 1.75 122 1.76
  60  0.410  0.500  0.652- 119 1.75 119 1.75 121 1.76
  61  0.435  0.500  0.554- 121 1.75  11 2.09  11 2.09  12 2.09
  62  0.435  0.500  0.446- 122 1.75  11 2.09  11 2.09  12 2.09
  63  0.448  0.000  0.348- 122 1.75 122 1.75 124 1.76
  64  0.448  0.000  0.652- 121 1.75 121 1.75 123 1.76
  65  0.474  0.000  0.554- 123 1.75  12 2.09  12 2.09  13 2.09
  66  0.474  0.000  0.446- 124 1.75  12 2.09  12 2.09  13 2.09
  67  0.487  0.500  0.348- 124 1.75 124 1.75 126 1.76
  68  0.487  0.500  0.652- 123 1.75 123 1.75 125 1.76
  69  0.513  0.500  0.554- 125 1.75  13 2.09  13 2.09  14 2.09
  70  0.513  0.500  0.446- 126 1.75  13 2.09  13 2.09  14 2.09
  71  0.526  0.000  0.348- 126 1.75 126 1.75 128 1.76
  72  0.526  0.000  0.652- 125 1.75 125 1.75 127 1.76
  73  0.552  0.000  0.554- 127 1.75  14 2.09  14 2.09  15 2.09
  74  0.552  0.000  0.446- 128 1.75  14 2.09  14 2.09  15 2.09
  75  0.565  0.500  0.348- 128 1.75 128 1.75 130 1.76
  76  0.565  0.500  0.652- 127 1.75 127 1.75 129 1.76
  77  0.590  0.500  0.554- 129 1.75  15 2.09  15 2.09  16 2.09
  78  0.590  0.500  0.446- 130 1.75  15 2.09  15 2.09  16 2.09
  79  0.603  0.000  0.348- 130 1.75 130 1.75 132 1.76
  80  0.603  0.000  0.652- 129 1.75 129 1.75 131 1.76
[...]
  89  0.707  0.000  0.554- 135 1.76  18 2.09  18 2.09  19 2.09
  90  0.707  0.000  0.446- 136 1.76  18 2.09  18 2.09  19 2.09
  91  0.720  0.500  0.349- 136 1.74 136 1.74 138 1.77
  92  0.720  0.500  0.651- 135 1.74 135 1.74 137 1.77
  93  0.746  0.500  0.553- 137 1.78  19 2.08  19 2.08  20 2.14
  94  0.746  0.500  0.447- 138 1.78  19 2.08  19 2.08  20 2.14
  95  0.758  0.000  0.348- 138 1.73 138 1.73 140 1.82
  96  0.758  0.000  0.652- 137 1.73 137 1.73 139 1.82
  97  0.783  0.000  0.555- 139 1.78  20 2.03  20 2.03
  98  0.783  0.000  0.446- 140 1.78  20 2.03  20 2.03
  99  0.796  0.500  0.348- 140 1.69 140 1.69
 100  0.796  0.500  0.653- 139 1.69 139 1.69
 101  0.047  0.500  0.632-  24 1.77  24 1.77  21 1.77 103 2.94 103 2.94
 102  0.047  0.500  0.368-  23 1.77  23 1.77  22 1.77 104 2.94 104 2.94
 103  0.087  0.000  0.630-  24 1.74  28 1.75  28 1.75  25 1.76 105 2.91 105 2.91 101 2.94 101 2.94

[...]

 139  0.785  0.000  0.632- 100 1.69 100 1.69  97 1.78  96 1.82 137 2.93 137 2.93
 140  0.785  0.000  0.369-  99 1.69  99 1.69  98 1.78  95 1.82 138 2.93 138 2.93

  LATTYP: Found a simple orthorhombic cell.
 ALAT       =     2.9100000858
 B/A-ratio  =     7.9037798357
 C/A-ratio  =    22.3367691009

  Lattice vectors:

 A1 = (   0.0000000000,   2.9100000858,   0.0000000000)
 A2 = (   0.0000000000,   0.0000000000, -23.0000000000)
 A3 = ( -65.0000000000,   0.0000000000,   0.0000000000)

Analysis of symmetry for initial positions (statically):
 Subroutine PRICEL returns:
 Original cell was already a primitive cell.

 Routine SETGRP: Setting up the symmetry group for a
 simple orthorhombic supercell.

 Subroutine GETGRP returns: Found  2 space group operations
 (whereof  2 operations were pure point group operations)
 out of a pool of  8 trial point group operations.

The static configuration has the point symmetry C_1h.

Analysis of symmetry for dynamics (positions and initial velocities):
 Subroutine PRICEL returns:
 Original cell was already a primitive cell.

[...]

[...]
   0.137E+04 -.292E-13 0.103E+04   -.137E+04 -.351E-14 -.105E+04   0.542E+00 0.000E+00 0.134E+02   -.763E-04 -.942E-14 0.537E-03
   0.137E+04 -.369E-14 -.103E+04   -.137E+04 0.131E-13 0.105E+04   0.542E+00 0.000E+00 -.134E+02   -.755E-04 -.258E-13 -.536E-03
   0.130E+04 0.116E-13 -.692E+03   -.130E+04 0.250E-13 0.692E+03   0.195E+00 0.000E+00 0.531E+00   -.398E-03 0.238E-14 -.343E-03
   0.130E+04 -.210E-13 0.692E+03   -.130E+04 0.744E-15 -.692E+03   0.197E+00 0.000E+00 -.532E+00   -.398E-03 0.846E-14 0.342E-03
   0.114E+04 -.343E-13 0.119E+04   -.114E+04 0.919E-15 -.121E+04   0.232E+00 0.000E+00 0.146E+02   -.353E-03 -.162E-13 0.597E-03
   0.114E+04 0.886E-12 -.119E+04   -.114E+04 0.130E-13 0.121E+04   0.230E+00 0.000E+00 -.146E+02   -.353E-03 -.220E-13 -.598E-03
   0.106E+04 -.816E-12 -.735E+03   -.106E+04 -.798E-14 0.734E+03   0.738E-01 0.000E+00 0.571E+00   -.282E-03 0.219E-14 -.227E-03
   0.106E+04 -.324E-12 0.735E+03   -.106E+04 0.142E-14 -.734E+03   0.745E-01 0.000E+00 -.571E+00   -.282E-03 0.959E-14 0.226E-03
   0.961E+03 -.566E-14 0.128E+04   -.961E+03 0.184E-13 -.129E+04   -.173E-01 0.000E+00 0.148E+02   -.209E-03 -.106E-13 0.712E-03
   0.961E+03 0.491E-13 -.128E+04   -.961E+03 0.722E-14 0.129E+04   -.175E-01 0.000E+00 -.148E+02   -.209E-03 -.256E-13 -.713E-03
   0.882E+03 -.503E-14 -.758E+03   -.882E+03 0.412E-13 0.758E+03   -.169E-01 0.000E+00 0.616E+00   0.169E-03 0.327E-14 -.257E-03
   0.882E+03 -.474E-13 0.758E+03   -.882E+03 0.472E-14 -.758E+03   -.146E-01 0.000E+00 -.617E+00   0.168E-03 0.208E-13 0.256E-03
   0.810E+03 0.555E-12 0.131E+04   -.809E+03 -.194E-14 -.133E+04   -.983E-01 0.000E+00 0.148E+02   0.236E-03 -.121E-13 0.847E-03
   0.810E+03 0.932E-12 -.131E+04   -.809E+03 -.899E-14 0.133E+04   -.100E+00 0.000E+00 -.148E+02   0.236E-03 -.844E-14 -.848E-03
   0.727E+03 0.110E-11 -.770E+03   -.727E+03 0.472E-14 0.769E+03   -.448E-01 0.000E+00 0.623E+00   0.636E-03 0.841E-15 -.335E-03
   0.727E+03 0.143E-11 0.770E+03   -.727E+03 0.778E-15 -.769E+03   -.438E-01 0.000E+00 -.622E+00   0.636E-03 0.174E-13 0.335E-03
   0.669E+03 -.790E-14 0.133E+04   -.669E+03 -.138E-13 -.135E+04   -.120E+00 0.000E+00 0.148E+02   0.812E-03 -.650E-14 0.899E-03
   0.669E+03 -.523E-14 -.133E+04   -.669E+03 -.109E-13 0.135E+04   -.116E+00 0.000E+00 -.148E+02   0.813E-03 -.132E-13 -.899E-03
   0.586E+03 0.483E-14 -.776E+03   -.585E+03 -.214E-13 0.775E+03   -.517E-01 0.000E+00 0.617E+00   0.111E-02 -.386E-15 -.296E-03
   0.586E+03 -.111E-13 0.776E+03   -.586E+03 0.773E-15 -.775E+03   -.486E-01 0.000E+00 -.619E+00   0.111E-02 0.163E-13 0.297E-03
   0.535E+03 -.250E-11 0.134E+04   -.535E+03 -.296E-13 -.136E+04   -.119E+00 0.000E+00 0.148E+02   0.138E-02 -.125E-13 0.802E-03
   0.535E+03 0.729E-12 -.134E+04   -.535E+03 -.465E-14 0.136E+04   -.123E+00 0.000E+00 -.148E+02   0.138E-02 -.108E-13 -.802E-03
   0.451E+03 -.109E-11 -.779E+03   -.451E+03 0.244E-13 0.778E+03   -.501E-01 0.000E+00 0.615E+00   0.154E-02 -.378E-15 -.202E-03
   0.451E+03 0.109E-11 0.779E+03   -.451E+03 0.383E-13 -.778E+03   -.483E-01 0.000E+00 -.615E+00   0.154E-02 0.889E-14 0.203E-03
   0.404E+03 0.104E-13 0.135E+04   -.404E+03 0.306E-14 -.136E+04   -.119E+00 0.000E+00 0.148E+02   0.177E-02 -.171E-13 0.583E-03
   0.404E+03 -.599E-14 -.135E+04   -.404E+03 0.869E-14 0.136E+04   -.117E+00 0.000E+00 -.148E+02   0.177E-02 -.102E-13 -.582E-03
   0.319E+03 -.257E-13 -.780E+03   -.319E+03 -.117E-13 0.779E+03   -.530E-01 0.000E+00 0.615E+00   0.167E-02 -.642E-14 -.163E-03
   0.319E+03 -.106E-13 0.780E+03   -.319E+03 -.333E-13 -.779E+03   -.535E-01 0.000E+00 -.614E+00   0.167E-02 0.732E-14 0.164E-03
   0.275E+03 -.356E-11 0.135E+04   -.274E+03 -.156E-13 -.137E+04   -.126E+00 0.000E+00 0.148E+02   0.176E-02 -.535E-14 0.276E-03
   0.275E+03 -.860E-11 -.135E+04   -.275E+03 -.185E-13 0.137E+04   -.120E+00 0.000E+00 -.148E+02   0.176E-02 -.186E-13 -.276E-03
   0.190E+03 0.297E-12 -.781E+03   -.190E+03 0.173E-13 0.780E+03   -.544E-01 0.000E+00 0.614E+00   0.120E-02 0.169E-14 -.380E-04
   0.190E+03 -.360E-11 0.781E+03   -.190E+03 0.313E-13 -.780E+03   -.539E-01 0.000E+00 -.615E+00   0.120E-02 0.430E-14 0.386E-04
   0.146E+03 0.252E-13 0.135E+04   -.146E+03 0.178E-13 -.137E+04   -.125E+00 0.000E+00 0.148E+02   0.130E-02 -.156E-13 -.891E-04
   0.146E+03 -.120E-13 -.135E+04   -.146E+03 0.701E-14 0.137E+04   -.123E+00 0.000E+00 -.148E+02   0.130E-02 -.629E-14 0.890E-04
   0.607E+02 -.196E-13 -.781E+03   -.606E+02 -.332E-13 0.780E+03   -.501E-01 0.000E+00 0.614E+00   0.683E-03 -.837E-14 0.136E-03
   0.605E+02 -.138E-13 0.781E+03   -.605E+02 -.266E-13 -.780E+03   -.513E-01 0.000E+00 -.615E+00   0.683E-03 -.152E-14 -.136E-03
   0.173E+02 -.352E-11 0.135E+04   -.171E+02 0.584E-14 -.137E+04   -.121E+00 0.000E+00 0.148E+02   0.442E-03 -.170E-13 -.349E-03
   0.175E+02 0.512E-11 -.135E+04   -.174E+02 -.104E-13 0.137E+04   -.125E+00 0.000E+00 -.148E+02   0.442E-03 -.156E-13 0.349E-03
[...]
   -.364E+03 -.162E-12 -.982E+03   0.365E+03 -.130E-13 0.978E+03   -.147E+00 0.000E+00 0.397E+01   -.186E-02 0.131E-14 -.268E-03
   -.365E+03 -.745E-13 0.982E+03   0.365E+03 -.918E-14 -.978E+03   -.147E+00 0.000E+00 -.398E+01   -.187E-02 0.145E-14 0.270E-03
   -.471E+03 -.460E-12 -.977E+03   0.471E+03 0.201E-14 0.973E+03   -.164E+00 0.000E+00 0.396E+01   -.173E-02 0.935E-15 -.524E-03
   -.471E+03 -.131E-11 0.977E+03   0.471E+03 -.301E-14 -.974E+03   -.168E+00 0.000E+00 -.397E+01   -.173E-02 0.565E-15 0.527E-03
   -.581E+03 -.733E-13 -.968E+03   0.582E+03 0.425E-15 0.964E+03   -.218E+00 0.000E+00 0.390E+01   -.134E-02 0.221E-14 -.735E-03
   -.582E+03 0.977E-13 0.968E+03   0.582E+03 0.146E-13 -.964E+03   -.224E+00 0.000E+00 -.391E+01   -.135E-02 0.295E-15 0.738E-03
   -.700E+03 -.774E-11 -.948E+03   0.700E+03 0.101E-13 0.944E+03   -.369E+00 0.000E+00 0.377E+01   -.869E-03 0.858E-15 -.809E-03
   -.700E+03 -.845E-11 0.948E+03   0.700E+03 -.137E-13 -.945E+03   -.380E+00 0.000E+00 -.377E+01   -.875E-03 0.133E-15 0.813E-03
   -.833E+03 0.265E-12 -.906E+03   0.834E+03 0.125E-13 0.903E+03   -.860E+00 0.000E+00 0.326E+01   -.450E-03 0.146E-14 -.721E-03
   -.834E+03 -.720E-13 0.906E+03   0.834E+03 0.351E-14 -.902E+03   -.869E+00 0.000E+00 -.326E+01   -.463E-03 -.340E-15 0.727E-03
   -.994E+03 -.285E-11 -.808E+03   0.996E+03 0.140E-13 0.807E+03   -.178E+01 0.000E+00 0.155E+01   -.128E-03 0.193E-14 -.472E-03
   -.994E+03 -.121E-10 0.808E+03   0.996E+03 0.904E-15 -.806E+03   -.177E+01 0.000E+00 -.155E+01   -.175E-03 0.344E-15 0.497E-03
   -.119E+04 0.342E-13 -.590E+03   0.119E+04 -.167E-13 0.590E+03   -.309E+01 0.000E+00 0.257E+00   0.256E-03 0.338E-14 -.115E-03
   -.119E+04 0.476E-13 0.590E+03   0.119E+04 0.179E-14 -.589E+03   -.308E+01 0.000E+00 -.264E+00   0.159E-03 0.187E-14 0.225E-03
   0.850E+02 -.344E-10 0.550E-01   0.318E-11 0.242E-12 -.512E-11   -.850E+02 0.000E+00 -.622E-01   -.383E-01 -.118E-11 0.836E-03

 POSITION                                       TOTAL-FORCE (eV/Angst)
      2.25022      0.00000     11.49812        -0.000741      0.000000      0.000289
      4.72813      1.45500     11.49817        -0.001206      0.000000      0.000880
      7.28251      0.00000     11.49816        -0.004560      0.000000      0.002857
      9.81909      1.45500     11.49813        -0.004106      0.000000      0.001927
     12.34546      0.00000     11.49806        -0.006585      0.000000      0.001705
     14.86737      1.45500     11.49809        -0.002968      0.000000      0.002242
     17.38727      0.00000     11.49798        -0.001131      0.000000      0.003567
     19.90619      1.45500     11.49794        -0.000086      0.000000      0.001776
     22.42482      0.00000     11.49802         0.000937      0.000000     -0.000330
     24.94335      1.45500     11.49812         0.001643      0.000000     -0.001710
     27.46213      0.00000     11.49825         0.003515      0.000000      0.000015
     29.98131      1.45500     11.49859         0.002025      0.000000      0.001070
     32.50084      0.00000     11.49888         0.001606      0.000000      0.001983
     35.02047      1.45500     11.49903         0.001699      0.000000     -0.000915
     37.53997      0.00000     11.49882         0.000179      0.000000     -0.001389
     40.05972      1.45500     11.49850        -0.001386      0.000000      0.001561
     42.57995      0.00000     11.49901        -0.001477      0.000000      0.003411
     45.10394      1.45500     11.49991         0.003510      0.000000      0.003882
     47.63175      0.00000     11.50070        -0.000003      0.000000      0.002388
     50.22740      1.45500     11.50076        -0.000581      0.000000      0.005006
      2.98143      1.45500     12.77184        -0.002063      0.000000      0.000679
      2.98146      1.45500     10.22441        -0.001712      0.000000     -0.000626
      3.97291      0.00000      7.99453         0.001254      0.000000      0.000179
      3.97270      0.00000     15.00183        -0.000124      0.000000     -0.000186
      5.58806      0.00000     12.73188         0.001156      0.000000     -0.002470
      5.58811      0.00000     10.26457         0.000952      0.000000     -0.000993
      6.47873      1.45500      8.01496         0.002665      0.000000     -0.000694
      6.47859      1.45500     14.98139         0.002415      0.000000      0.000285
      8.13340      1.45500     12.73816        -0.002842      0.000000     -0.001180
      8.13340      1.45500     10.25824        -0.003300      0.000000     -0.002782
      8.99333      0.00000      8.00393        -0.002754      0.000000      0.003710
      8.99324      0.00000     14.99245        -0.002859      0.000000     -0.004389
     10.66287      0.00000     12.74327        -0.004772      0.000000     -0.000679
     10.66288      0.00000     10.25306        -0.004958      0.000000     -0.003480
     11.51138      1.45500      7.99884        -0.002334      0.000000     -0.001862
     11.51128      1.45500     14.99741        -0.002094      0.000000      0.000764
     13.18636      1.45500     12.74464        -0.005936      0.000000      0.001561
     13.18642      1.45500     10.25149        -0.006085      0.000000     -0.004828
     14.02995      0.00000      7.99698        -0.002638      0.000000     -0.001204
     14.02979      0.00000     14.99909        -0.002147      0.000000      0.000954
     15.70686      0.00000     12.74531        -0.002187      0.000000     -0.001854
     15.70681      0.00000     10.25094        -0.002178      0.000000     -0.002403
     16.54850      1.45500      7.99630        -0.002352      0.000000     -0.001577
     16.54844      1.45500     14.99983        -0.003159      0.000000      0.001548
     18.22606      1.45500     12.74552         0.000828      0.000000     -0.001915
     18.22605      1.45500     10.25052         0.000882      0.000000     -0.003449
     19.06693      0.00000      7.99559        -0.000160      0.000000      0.000422
     19.06676      0.00000     15.00038         0.000953      0.000000     -0.001084
     20.74473      0.00000     12.74560         0.000434      0.000000     -0.000256
     20.74481      0.00000     10.25037         0.000008      0.000000     -0.001624
     21.58548      1.45500      7.99553        -0.002859      0.000000      0.001047
     21.58522      1.45500     15.00044        -0.000166      0.000000     -0.000921
     23.26330      1.45500     12.74558         0.000069      0.000000      0.001259
     23.26335      1.45500     10.25044         0.000485      0.000000      0.002455
     24.10407      0.00000      7.99580        -0.000631      0.000000      0.001740
     24.10384      0.00000     15.00028         0.000805      0.000000     -0.000457
     25.78180      0.00000     12.74555         0.002860      0.000000      0.001863
     25.78189      0.00000     10.25068         0.003122      0.000000      0.002781
     26.62279      1.45500      7.99632         0.006790      0.000000      0.000228
     26.62278      1.45500     15.00003         0.002436      0.000000      0.001007
[...]
     33.34454      1.45500      8.50408         0.000982      0.000000     -0.000482
     35.86456      0.00000     14.49418        -0.000866      0.000000     -0.002430
     35.86481      0.00000      8.50402         0.002902      0.000000     -0.001677
     38.38479      1.45500     14.49375         0.002762      0.000000     -0.000575
     38.38569      1.45500      8.50374        -0.001770      0.000000      0.000219
     40.90554      0.00000     14.49324         0.001485      0.000000     -0.000139
     40.90709      0.00000      8.50375        -0.005461      0.000000      0.001101
     43.42763      1.45500     14.49304         0.002756      0.000000      0.002095
     43.42935      1.45500      8.50559         0.000669      0.000000     -0.000464
     45.95190      0.00000     14.49188        -0.001646      0.000000      0.003119
     45.95390      0.00000      8.50878        -0.004431      0.000000     -0.003176
     48.48517      1.45500     14.50215         0.001982      0.000000      0.003697
     48.48733      1.45500      8.49961         0.002390      0.000000     -0.004428
     51.03132      0.00000     14.52589         0.000353      0.000000     -0.001093
     51.03394      0.00000      8.47621         0.002072      0.000000     -0.001203
    total drift:                               -0.016446     -0.000000     -0.006365

  FREE ENERGIE OF THE ION-ELECTRON SYSTEM (eV)
  free  energy   TOTEN  =     -1221.17398155 eV

  energy  without entropy=    -1221.17156155  energy(sigma->0) =    -1221.17277155

 writing wavefunctions

 total charge

[...]

 magnetization (x)

# of ion     s       p       d       tot
  1        0.022   0.012   0.274   0.308
  2        0.006   0.006   0.182   0.193
  3        0.000   0.001   0.043   0.044
  4        0.000   0.000   0.006   0.006
  5        0.000   0.000   0.001   0.001
  6       -0.000  -0.000   0.000   0.000
  7       -0.000  -0.000   0.000   0.000
  8       -0.000  -0.000  -0.000  -0.000
  9       -0.000  -0.000  -0.000  -0.000
 10       -0.000  -0.000   0.000   0.000
 11       -0.000  -0.000   0.000   0.000
 12        0.000   0.000   0.000   0.000
 13        0.000   0.000   0.000   0.000
 14        0.000   0.000   0.000   0.000
 15        0.000   0.000   0.001   0.001
 16        0.000   0.000  -0.000  -0.000
 17       -0.000  -0.000  -0.003  -0.003
 18       -0.000   0.000  -0.006  -0.005
 19        0.001   0.002   0.072   0.075
 20        0.001   0.003   0.057   0.060
 21        0.009   0.040   0.000   0.049
 22        0.009   0.040   0.000   0.049
 23        0.016   0.059   0.000   0.075
 24        0.016   0.059   0.000   0.075
 25        0.000   0.009   0.000   0.009
 26        0.000   0.009   0.000   0.009
 27        0.001   0.004   0.000   0.005
 28        0.001   0.004   0.000   0.005
 29        0.000   0.003   0.000   0.003
 30        0.000   0.003   0.000   0.003
 31        0.000   0.000   0.000   0.000
 32        0.000   0.000   0.000   0.000
 33        0.000   0.000   0.000   0.000
 34        0.000   0.000   0.000   0.000
 35        0.000   0.000   0.000   0.000
 36        0.000   0.000   0.000   0.000
 37        0.000   0.000   0.000   0.000
 38        0.000   0.000   0.000   0.000
 39        0.000   0.000   0.000   0.000
 40        0.000   0.000   0.000   0.000
 41        0.000   0.000   0.000   0.000
 42        0.000   0.000   0.000   0.000
 43        0.000   0.000   0.000   0.000
 44        0.000   0.000   0.000   0.000
 45        0.000   0.000   0.000   0.000
 46        0.000   0.000   0.000   0.000
 47        0.000   0.000   0.000   0.000
 48        0.000   0.000   0.000   0.000
 49        0.000   0.000   0.000   0.000
 50        0.000   0.000   0.000   0.000
 51        0.000   0.000   0.000   0.000
 52        0.000   0.000   0.000   0.000
 53        0.000   0.000   0.000   0.000
 54        0.000   0.000   0.000   0.000
 55        0.000   0.000   0.000   0.000
 56        0.000   0.000   0.000   0.000
 57        0.000   0.000   0.000   0.000
 58        0.000   0.000   0.000   0.000
 59        0.000   0.000   0.000   0.000
 60        0.000   0.000   0.000   0.000
[...]
126        0.000   0.000   0.000   0.000
127        0.000   0.000   0.000   0.000
128        0.000   0.000   0.000   0.000
129        0.000   0.000   0.000   0.000
130        0.000   0.000   0.000   0.000
131       -0.000  -0.000   0.000  -0.000
132       -0.000  -0.000   0.000  -0.000
133       -0.000  -0.000   0.000  -0.000
134       -0.000  -0.000   0.000  -0.000
135        0.000  -0.000   0.000   0.000
136        0.000  -0.000   0.000   0.000
137        0.000   0.001   0.000   0.002
138        0.000   0.001   0.000   0.002
139       -0.005  -0.010   0.000  -0.015
140       -0.005  -0.010   0.000  -0.015
tot        0.297   1.950   0.628   2.876