 vasp.5.4.1 24Jun15 (build Dec 27 2015 16:41:11) complex

 executed on             LinuxIFC date 2020.12.15  13:00:13

 INCAR:
 POTCAR:    PAW_PBE Mo_sv 02Feb2006
 POTCAR:    PAW_PBE N 08Apr2002
 POTCAR:    PAW_PBE Si 05Jan2001

 POTCAR:    PAW_PBE Mo_sv 02Feb2006
   VRHFIN =Mo: 4p5s4d

   TITEL  = PAW_PBE Mo_sv 02Feb2006
   POMASS =   95.940; ZVAL   =   14.000    mass and valenz
   ENMAX  =  242.676; ENMIN  =  182.007 eV

 POTCAR:    PAW_PBE N 08Apr2002
   VRHFIN =N: s2p3

   TITEL  = PAW_PBE N 08Apr2002
   POMASS =   14.001; ZVAL   =    5.000    mass and valenz
   ENMAX  =  400.000; ENMIN  =  300.000 eV

 POTCAR:    PAW_PBE Si 05Jan2001
   VRHFIN =Si: s2p2

   TITEL  = PAW_PBE Si 05Jan2001
   POMASS =   28.085; ZVAL   =    4.000    mass and valenz
   ENMAX  =  245.345; ENMIN  =  184.009 eV

 Optimization of the real space projectors (new method)

 maximal supplied QI-value         = 15.12
 optimisation between [QCUT,QGAM] = [ 12.55, 25.10] = [ 44.09,176.36] Ry
 Optimized for a Real-space Cutoff    1.61 Angstroem

   l    n(q)    QCUT    max X(q) W(low)/X(q) W(high)/X(q)  e(spline)
   0     12    12.548     3.559    0.37E-05    0.27E-05    0.23E-06
   0     12    12.548    20.730    0.32E-04    0.37E-05    0.26E-06
   1     12    12.548     3.279    0.14E-06    0.19E-06    0.38E-07
   1     12    12.548     4.693    0.16E-04    0.21E-04    0.34E-06
   2     11    12.548    67.616    0.75E-04    0.14E-03    0.75E-06
   2     11    12.548    62.420    0.75E-04    0.15E-03    0.75E-06
 Optimization of the real space projectors (new method)

[...]

   l    n(q)    QCUT    max X(q) W(low)/X(q) W(high)/X(q)  e(spline)
   0     10    12.315    79.467    0.60E-04    0.26E-05    0.59E-06
   0     10    12.315    66.151    0.59E-04    0.23E-05    0.59E-06
   1     10    12.315    22.077    0.13E-03    0.23E-03    0.74E-06
   1     10    12.315    15.894    0.13E-03    0.24E-03    0.75E-06
 Optimization of the real space projectors (new method)

 maximal supplied QI-value         = 19.84
 optimisation between [QCUT,QGAM] = [ 12.50, 25.00] = [ 43.76,175.03] Ry
 Optimized for a Real-space Cutoff    1.16 Angstroem

   l    n(q)    QCUT    max X(q) W(low)/X(q) W(high)/X(q)  e(spline)
   0      9    12.501   159.560    0.10E-03    0.83E-04    0.71E-07
   0      9    12.501   115.863    0.99E-04    0.81E-04    0.70E-07
   1      8    12.501    88.339    0.20E-03    0.25E-03    0.76E-07
   1      8    12.501    48.592    0.20E-03    0.24E-03    0.75E-07
  PAW_PBE Mo_sv 02Feb2006               :
  PAW_PBE N 08Apr2002                   :
  PAW_PBE Si 05Jan2001                  :

 POSCAR: CONTCAR40
  positions in direct lattice
  velocities in cartesian coordinates
 exchange correlation table for  LEXCH =        8
   RHO(1)=    0.500       N(1)  =     2000
   RHO(2)=  100.500       N(2)  =     4000

 ion  position               nearest neighbor table
   1  0.035  0.000  0.500-  21 2.07  21 2.07  22 2.07  22 2.07   2 2.87   2 2.87
   2  0.073  0.500  0.500-  26 2.09  26 2.09  25 2.09  25 2.09  21 2.16  22 2.16   1 2.87   1 2.87
                             3 2.94   3 2.94
   3  0.112  0.000  0.500-  30 2.09  30 2.09  29 2.09  29 2.09  26 2.10  25 2.10   4 2.92   4 2.92
                             2 2.94   2 2.94
   4  0.151  0.500  0.500-  30 2.09  34 2.09  34 2.09  29 2.09  33 2.09  33 2.09   5 2.92   5 2.92
                             3 2.92   3 2.92
   5  0.190  0.000  0.500-  37 2.09  37 2.09  38 2.09  38 2.09  34 2.09  33 2.09   6 2.91   6 2.91
                             4 2.92   4 2.92
   6  0.229  0.500  0.500-  42 2.09  42 2.09  41 2.09  41 2.09  38 2.09  37 2.09   7 2.91   7 2.91
                             5 2.91   5 2.91
   7  0.267  0.000  0.500-  46 2.09  46 2.09  45 2.09  45 2.09  42 2.09  41 2.09   8 2.91   8 2.91
                             6 2.91   6 2.91
   8  0.306  0.500  0.500-  50 2.09  50 2.09  49 2.09  49 2.09  46 2.09  45 2.09   9 2.91   9 2.91
                             7 2.91   7 2.91
   9  0.345  0.000  0.500-  53 2.09  53 2.09  54 2.09  54 2.09  50 2.09  49 2.09  10 2.91  10 2.91
                             8 2.91   8 2.91
  10  0.384  0.500  0.500-  57 2.09  57 2.09  58 2.09  58 2.09  53 2.09  54 2.09   9 2.91   9 2.91
                            11 2.91  11 2.91
  11  0.422  0.000  0.500-  62 2.09  62 2.09  61 2.09  61 2.09  57 2.09  58 2.09  10 2.91  10 2.91
                            12 2.91  12 2.91
  12  0.461  0.500  0.500-  66 2.09  66 2.09  65 2.09  65 2.09  61 2.09  62 2.09  11 2.91  11 2.91
                            13 2.91  13 2.91
  13  0.500  0.000  0.500-  70 2.09  70 2.09  69 2.09  69 2.09  65 2.09  66 2.09  12 2.91  12 2.91
                            14 2.91  14 2.91
  14  0.539  0.500  0.500-  73 2.09  73 2.09  74 2.09  74 2.09  69 2.09  70 2.09  15 2.91  15 2.91
                            13 2.91  13 2.91
  15  0.578  0.000  0.500-  77 2.09  77 2.09  78 2.09  78 2.09  74 2.09  73 2.09  14 2.91  14 2.91
                            16 2.91  16 2.91
  16  0.616  0.500  0.500-  81 2.09  81 2.09  82 2.09  82 2.09  78 2.09  77 2.09  15 2.91  15 2.91
                            17 2.91  17 2.91
  17  0.655  0.000  0.500-  86 2.09  86 2.09  85 2.09  85 2.09  81 2.09  82 2.09  16 2.91  16 2.91
                            18 2.91  18 2.91
  18  0.694  0.500  0.500-  90 2.09  90 2.09  89 2.09  89 2.09  85 2.09  86 2.09  17 2.91  17 2.91
                            19 2.92  19 2.92
  19  0.733  0.000  0.500-  93 2.08  93 2.08  94 2.08  94 2.08  90 2.09  89 2.09  18 2.92  18 2.92
                            20 2.98  20 2.98
  20  0.773  0.500  0.500-  98 2.03  98 2.03  97 2.03  97 2.03  94 2.14  93 2.14  19 2.98  19 2.98

  21  0.046  0.500  0.555- 101 1.77   1 2.07   1 2.07   2 2.16
  22  0.046  0.500  0.445- 102 1.77   1 2.07   1 2.07   2 2.16
  23  0.061  0.000  0.348- 104 1.74 102 1.77 102 1.77
  24  0.061  0.000  0.652- 103 1.74 101 1.77 101 1.77
  25  0.086  0.000  0.554- 103 1.76   2 2.09   2 2.09   3 2.10
  26  0.086  0.000  0.446- 104 1.76   2 2.09   2 2.09   3 2.10
  27  0.100  0.500  0.348- 106 1.75 104 1.75 104 1.75
  28  0.100  0.500  0.651- 105 1.75 103 1.75 103 1.75
  29  0.125  0.500  0.554- 105 1.75   3 2.09   3 2.09   4 2.09
  30  0.125  0.500  0.446- 106 1.75   3 2.09   3 2.09   4 2.09
  31  0.138  0.000  0.348- 106 1.75 106 1.75 108 1.75
  32  0.138  0.000  0.652- 105 1.75 105 1.75 107 1.75
  33  0.164  0.000  0.554- 107 1.75   4 2.09   4 2.09   5 2.09
  34  0.164  0.000  0.446- 108 1.75   4 2.09   4 2.09   5 2.09
  35  0.177  0.500  0.348- 108 1.75 108 1.75 110 1.76
  36  0.177  0.500  0.652- 107 1.75 107 1.75 109 1.76
  37  0.203  0.500  0.554- 109 1.75   5 2.09   5 2.09   6 2.09
  38  0.203  0.500  0.446- 110 1.75   5 2.09   5 2.09   6 2.09
  39  0.216  0.000  0.348- 110 1.75 110 1.75 112 1.76
  40  0.216  0.000  0.652- 109 1.75 109 1.75 111 1.76
  41  0.242  0.000  0.554- 111 1.75   6 2.09   6 2.09   7 2.09
  42  0.242  0.000  0.446- 112 1.75   6 2.09   6 2.09   7 2.09
  43  0.255  0.500  0.348- 112 1.75 112 1.75 114 1.76
  44  0.255  0.500  0.652- 111 1.75 111 1.75 113 1.76
  45  0.280  0.500  0.554- 113 1.75   7 2.09   7 2.09   8 2.09
  46  0.280  0.500  0.446- 114 1.75   7 2.09   7 2.09   8 2.09
  47  0.293  0.000  0.348- 114 1.75 114 1.75 116 1.76
  48  0.293  0.000  0.652- 113 1.75 113 1.75 115 1.76
  49  0.319  0.000  0.554- 115 1.75   8 2.09   8 2.09   9 2.09
  50  0.319  0.000  0.446- 116 1.75   8 2.09   8 2.09   9 2.09
  51  0.332  0.500  0.348- 116 1.75 116 1.75 118 1.76
  52  0.332  0.500  0.652- 115 1.75 115 1.75 117 1.76
  53  0.358  0.500  0.554- 117 1.75   9 2.09   9 2.09  10 2.09
  54  0.358  0.500  0.446- 118 1.75   9 2.09   9 2.09  10 2.09
  55  0.371  0.000  0.348- 118 1.75 118 1.75 120 1.76
  56  0.371  0.000  0.652- 117 1.75 117 1.75 119 1.76
  57  0.397  0.000  0.554- 119 1.75  10 2.09  10 2.09  11 2.09
  58  0.397  0.000  0.446- 120 1.75  10 2.09  10 2.09  11 2.09
  59  0.410  0.500  0.348- 120 1.75 120 1.75 122 1.76
  60  0.410  0.500  0.652- 119 1.75 119 1.75 121 1.76
  61  0.435  0.500  0.554- 121 1.75  11 2.09  11 2.09  12 2.09
  62  0.435  0.500  0.446- 122 1.75  11 2.09  11 2.09  12 2.09
  63  0.448  0.000  0.348- 122 1.75 122 1.75 124 1.76
  64  0.448  0.000  0.652- 121 1.75 121 1.75 123 1.76
  65  0.474  0.000  0.554- 123 1.75  12 2.09  12 2.09  13 2.09
  66  0.474  0.000  0.446- 124 1.75  12 2.09  12 2.09  13 2.09
  67  0.487  0.500  0.348- 124 1.75 124 1.75 126 1.76
  68  0.487  0.500  0.652- 123 1.75 123 1.75 125 1.76
  69  0.513  0.500  0.554- 125 1.75  13 2.09  13 2.09  14 2.09
  70  0.513  0.500  0.446- 126 1.75  13 2.09  13 2.09  14 2.09
  71  0.526  0.000  0.348- 126 1.75 126 1.75 128 1.76
  72  0.526  0.000  0.652- 125 1.75 125 1.75 127 1.76
  73  0.552  0.000  0.554- 127 1.75  14 2.09  14 2.09  15 2.09
  74  0.552  0.000  0.446- 128 1.75  14 2.09  14 2.09  15 2.09
  75  0.565  0.500  0.348- 128 1.75 128 1.75 130 1.76
  76  0.565  0.500  0.652- 127 1.75 127 1.75 129 1.76
  77  0.590  0.500  0.554- 129 1.75  15 2.09  15 2.09  16 2.09
  78  0.590  0.500  0.446- 130 1.75  15 2.09  15 2.09  16 2.09
  79  0.603  0.000  0.348- 130 1.75 130 1.75 132 1.76
  80  0.603  0.000  0.652- 129 1.75 129 1.75 131 1.76
[...]
  89  0.707  0.000  0.554- 135 1.76  18 2.09  18 2.09  19 2.09
  90  0.707  0.000  0.446- 136 1.76  18 2.09  18 2.09  19 2.09
  91  0.720  0.500  0.349- 136 1.74 136 1.74 138 1.77
  92  0.720  0.500  0.651- 135 1.74 135 1.74 137 1.77
  93  0.746  0.500  0.553- 137 1.78  19 2.08  19 2.08  20 2.14
  94  0.746  0.500  0.447- 138 1.78  19 2.08  19 2.08  20 2.14
  95  0.758  0.000  0.348- 138 1.73 138 1.73 140 1.82
  96  0.758  0.000  0.652- 137 1.73 137 1.73 139 1.82
  97  0.783  0.000  0.555- 139 1.78  20 2.03  20 2.03
  98  0.783  0.000  0.446- 140 1.78  20 2.03  20 2.03
  99  0.796  0.500  0.348- 140 1.69 140 1.69
 100  0.796  0.500  0.653- 139 1.69 139 1.69
 101  0.047  0.500  0.632-  24 1.77  24 1.77  21 1.77 103 2.94 103 2.94
 102  0.047  0.500  0.368-  23 1.77  23 1.77  22 1.77 104 2.94 104 2.94
 103  0.087  0.000  0.630-  24 1.74  28 1.75  28 1.75  25 1.76 105 2.91 105 2.91 101 2.94 101 2.94

[...]

 139  0.785  0.000  0.632- 100 1.69 100 1.69  97 1.78  96 1.82 137 2.93 137 2.93
 140  0.785  0.000  0.369-  99 1.69  99 1.69  98 1.78  95 1.82 138 2.93 138 2.93

  LATTYP: Found a simple orthorhombic cell.
 ALAT       =     2.9100000858
 B/A-ratio  =     7.9037798357
 C/A-ratio  =    22.3367691009

  Lattice vectors:

 A1 = (   0.0000000000,   2.9100000858,   0.0000000000)
 A2 = (   0.0000000000,   0.0000000000, -23.0000000000)
 A3 = ( -65.0000000000,   0.0000000000,   0.0000000000)

Analysis of symmetry for initial positions (statically):
 Subroutine PRICEL returns:
 Original cell was already a primitive cell.

 Routine SETGRP: Setting up the symmetry group for a
 simple orthorhombic supercell.

 Subroutine GETGRP returns: Found  2 space group operations
 (whereof  2 operations were pure point group operations)
 out of a pool of  8 trial point group operations.

The static configuration has the point symmetry C_1h.

Analysis of symmetry for dynamics (positions and initial velocities):
 Subroutine PRICEL returns:
 Original cell was already a primitive cell.

[...]

[...]
   0.137E+04 -.103E-13 0.103E+04   -.137E+04 -.351E-14 -.105E+04   0.545E+00 0.000E+00 0.134E+02   -.268E-02 0.679E-14 -.167E-01
   0.137E+04 0.163E-13 -.103E+04   -.137E+04 0.131E-13 0.105E+04   0.536E+00 0.000E+00 -.134E+02   0.490E-01 0.446E-12 0.166E-01
   0.130E+04 0.975E-14 -.692E+03   -.130E+04 0.250E-13 0.692E+03   0.214E+00 0.000E+00 0.557E+00   0.917E-01 0.106E-11 -.907E-02
   0.130E+04 -.139E-13 0.692E+03   -.130E+04 0.744E-15 -.692E+03   0.220E+00 0.000E+00 -.562E+00   0.685E-01 0.428E-12 0.238E-01
   0.114E+04 0.151E-12 0.119E+04   -.114E+04 0.919E-15 -.121E+04   0.245E+00 0.000E+00 0.146E+02   0.213E-01 -.139E-12 -.144E-01
   0.114E+04 0.967E-12 -.119E+04   -.114E+04 0.130E-13 0.121E+04   0.242E+00 0.000E+00 -.146E+02   0.248E-01 0.307E-12 -.398E-03
   0.106E+04 -.788E-12 -.735E+03   -.106E+04 -.798E-14 0.734E+03   0.102E+00 0.000E+00 0.601E+00   0.123E-01 -.139E-12 -.228E-01
   0.106E+04 -.265E-12 0.735E+03   -.106E+04 0.142E-14 -.734E+03   0.101E+00 0.000E+00 -.607E+00   0.341E-01 0.674E-13 0.453E-01
   0.961E+03 -.496E-13 0.128E+04   -.961E+03 0.184E-13 -.129E+04   -.163E-01 0.000E+00 0.148E+02   0.450E-01 0.170E-12 -.426E-02
   0.961E+03 -.104E-13 -.128E+04   -.961E+03 0.722E-14 0.129E+04   -.949E-02 0.000E+00 -.148E+02   0.949E-02 0.738E-12 -.376E-02
   0.881E+03 0.814E-14 -.758E+03   -.882E+03 0.412E-13 0.758E+03   0.684E-02 0.000E+00 0.648E+00   0.434E-01 -.167E-11 -.212E-01
   0.881E+03 -.485E-14 0.758E+03   -.882E+03 0.472E-14 -.758E+03   0.709E-02 0.000E+00 -.650E+00   0.637E-01 -.932E-12 0.210E-01
   0.810E+03 0.712E-12 0.131E+04   -.809E+03 -.194E-14 -.133E+04   -.985E-01 0.000E+00 0.148E+02   0.540E-01 0.694E-12 0.128E-01
   0.810E+03 0.961E-12 -.131E+04   -.809E+03 -.899E-14 0.133E+04   -.959E-01 0.000E+00 -.148E+02   0.287E-01 0.242E-11 0.128E-02
   0.727E+03 0.103E-11 -.770E+03   -.727E+03 0.472E-14 0.769E+03   -.224E-01 0.000E+00 0.661E+00   0.520E-01 0.807E-12 -.605E-01
   0.727E+03 0.120E-11 0.770E+03   -.727E+03 0.778E-15 -.769E+03   -.208E-01 0.000E+00 -.656E+00   0.480E-01 0.175E-12 0.442E-01
   0.669E+03 0.152E-14 0.133E+04   -.669E+03 -.138E-13 -.135E+04   -.122E+00 0.000E+00 0.148E+02   0.606E-01 -.430E-12 0.106E-01
   0.669E+03 0.390E-13 -.133E+04   -.669E+03 -.109E-13 0.135E+04   -.115E+00 0.000E+00 -.148E+02   0.426E-01 -.186E-11 -.464E-02
   0.585E+03 0.336E-14 -.776E+03   -.585E+03 -.214E-13 0.775E+03   -.304E-01 0.000E+00 0.651E+00   0.527E-01 -.103E-11 -.347E-01
   0.585E+03 0.649E-14 0.776E+03   -.586E+03 0.773E-15 -.775E+03   -.276E-01 0.000E+00 -.650E+00   0.595E-01 -.124E-11 0.162E-01
   0.535E+03 -.254E-11 0.134E+04   -.535E+03 -.296E-13 -.136E+04   -.121E+00 0.000E+00 0.148E+02   0.616E-01 -.394E-13 0.266E-01
   0.535E+03 0.607E-12 -.134E+04   -.535E+03 -.465E-14 0.136E+04   -.128E+00 0.000E+00 -.148E+02   0.761E-01 -.108E-11 -.197E-01
   0.451E+03 -.102E-11 -.778E+03   -.451E+03 0.244E-13 0.778E+03   -.278E-01 0.000E+00 0.651E+00   0.545E-01 0.504E-12 -.690E-01
   0.451E+03 0.105E-11 0.779E+03   -.451E+03 0.383E-13 -.778E+03   -.269E-01 0.000E+00 -.649E+00   0.596E-01 -.171E-11 0.481E-01
   0.404E+03 -.480E-13 0.135E+04   -.404E+03 0.306E-14 -.136E+04   -.120E+00 0.000E+00 0.148E+02   0.583E-01 -.895E-12 0.415E-01
   0.404E+03 0.428E-13 -.135E+04   -.404E+03 0.869E-14 0.136E+04   -.112E+00 0.000E+00 -.148E+02   0.280E-01 -.330E-12 -.211E-01
   0.319E+03 -.109E-13 -.780E+03   -.319E+03 -.117E-13 0.779E+03   -.285E-01 0.000E+00 0.654E+00   0.316E-01 0.368E-11 -.788E-01
   0.319E+03 0.146E-13 0.780E+03   -.319E+03 -.333E-13 -.779E+03   -.292E-01 0.000E+00 -.648E+00   0.297E-01 0.239E-11 0.481E-01
   0.275E+03 -.357E-11 0.135E+04   -.274E+03 -.156E-13 -.137E+04   -.125E+00 0.000E+00 0.148E+02   0.489E-01 0.193E-11 0.357E-01
   0.275E+03 -.841E-11 -.135E+04   -.275E+03 -.185E-13 0.137E+04   -.121E+00 0.000E+00 -.148E+02   0.576E-01 0.581E-12 -.277E-01
   0.190E+03 0.249E-12 -.780E+03   -.190E+03 0.173E-13 0.780E+03   -.303E-01 0.000E+00 0.653E+00   0.337E-01 0.338E-11 -.787E-01
   0.190E+03 -.352E-11 0.781E+03   -.190E+03 0.313E-13 -.780E+03   -.271E-01 0.000E+00 -.650E+00   0.747E-02 0.471E-12 0.591E-01
   0.146E+03 -.130E-13 0.135E+04   -.146E+03 0.178E-13 -.137E+04   -.118E+00 0.000E+00 0.148E+02   0.930E-02 0.164E-11 0.296E-01
   0.146E+03 -.108E-13 -.135E+04   -.146E+03 0.701E-14 0.137E+04   -.123E+00 0.000E+00 -.148E+02   0.466E-01 -.675E-12 -.276E-01
   0.606E+02 0.200E-14 -.781E+03   -.606E+02 -.332E-13 0.780E+03   -.251E-01 0.000E+00 0.648E+00   0.231E-01 -.152E-11 -.357E-01
   0.605E+02 0.881E-14 0.781E+03   -.605E+02 -.266E-13 -.780E+03   -.253E-01 0.000E+00 -.650E+00   0.111E-01 0.190E-12 0.381E-01
   0.172E+02 -.362E-11 0.135E+04   -.171E+02 0.584E-14 -.137E+04   -.123E+00 0.000E+00 0.148E+02   0.588E-01 -.447E-12 0.191E-01
   0.174E+02 0.506E-11 -.135E+04   -.174E+02 -.104E-13 0.137E+04   -.126E+00 0.000E+00 -.148E+02   0.487E-01 0.213E-12 -.193E-01
[...]
   -.365E+03 -.281E-13 -.982E+03   0.365E+03 -.130E-13 0.978E+03   -.117E+00 0.000E+00 0.401E+01   0.542E-01 0.246E-13 -.236E-01
   -.365E+03 0.916E-13 0.982E+03   0.365E+03 -.918E-14 -.978E+03   -.113E+00 0.000E+00 -.401E+01   0.563E-01 0.562E-14 0.281E-01
   -.471E+03 -.701E-12 -.977E+03   0.471E+03 0.201E-14 0.973E+03   -.134E+00 0.000E+00 0.399E+01   0.566E-01 0.102E-11 -.359E-01
   -.471E+03 -.112E-11 0.977E+03   0.471E+03 -.301E-14 -.974E+03   -.138E+00 0.000E+00 -.400E+01   0.592E-01 0.743E-12 0.410E-01
   -.581E+03 0.121E-12 -.968E+03   0.582E+03 0.425E-15 0.964E+03   -.185E+00 0.000E+00 0.393E+01   0.593E-01 -.129E-11 -.643E-01
   -.582E+03 0.549E-13 0.968E+03   0.582E+03 0.146E-13 -.964E+03   -.193E+00 0.000E+00 -.394E+01   0.623E-01 -.712E-12 0.644E-01
   -.700E+03 -.834E-11 -.948E+03   0.700E+03 0.101E-13 0.944E+03   -.337E+00 0.000E+00 0.380E+01   0.567E-01 0.830E-12 -.105E+00
   -.700E+03 -.865E-11 0.948E+03   0.700E+03 -.137E-13 -.945E+03   -.349E+00 0.000E+00 -.380E+01   0.555E-01 0.764E-12 0.103E+00
   -.833E+03 0.142E-12 -.906E+03   0.834E+03 0.125E-13 0.903E+03   -.830E+00 0.000E+00 0.327E+01   -.578E-02 -.193E-11 -.157E+00
   -.834E+03 0.733E-14 0.906E+03   0.834E+03 0.351E-14 -.902E+03   -.837E+00 0.000E+00 -.327E+01   0.905E-04 -.783E-12 0.163E+00
   -.994E+03 -.239E-11 -.808E+03   0.996E+03 0.140E-13 0.807E+03   -.175E+01 0.000E+00 0.156E+01   -.115E+00 -.537E-13 -.157E+00
   -.994E+03 -.121E-10 0.808E+03   0.996E+03 0.904E-15 -.806E+03   -.175E+01 0.000E+00 -.155E+01   -.126E+00 -.476E-13 0.159E+00
   -.119E+04 0.989E-13 -.590E+03   0.119E+04 -.167E-13 0.590E+03   -.304E+01 0.000E+00 0.287E+00   -.349E-01 -.166E-11 0.590E-01
   -.119E+04 0.220E-12 0.590E+03   0.119E+04 0.179E-14 -.589E+03   -.303E+01 0.000E+00 -.293E+00   -.398E-01 -.322E-12 -.627E-01
   0.784E+02 -.330E-10 0.709E+00   0.318E-11 0.242E-12 -.512E-11   -.829E+02 0.000E+00 0.232E-01   0.452E+01 0.810E-11 -.742E+00

 POSITION                                       TOTAL-FORCE (eV/Angst)
      2.25022      0.00000     11.49812        -0.020023      0.000000      0.000689
      4.72813      1.45500     11.49817         0.018712      0.000000     -0.000174
      7.28251      0.00000     11.49816        -0.020902      0.000000      0.003873
      9.81909      1.45500     11.49813        -0.015404      0.000000      0.001203
     12.34546      0.00000     11.49806        -0.016364      0.000000      0.000143
     14.86737      1.45500     11.49809        -0.014211      0.000000      0.001704
     17.38727      0.00000     11.49798        -0.008866      0.000000      0.003485
     19.90619      1.45500     11.49794        -0.009792      0.000000      0.000662
     22.42482      0.00000     11.49802        -0.007868      0.000000     -0.000459
     24.94335      1.45500     11.49812        -0.009673      0.000000     -0.000419
     27.46213      0.00000     11.49825        -0.006158      0.000000     -0.000240
     29.98131      1.45500     11.49859        -0.009405      0.000000      0.000033
     32.50084      0.00000     11.49888        -0.008660      0.000000      0.003281
     35.02047      1.45500     11.49903        -0.005807      0.000000     -0.001189
     37.53997      0.00000     11.49882        -0.009543      0.000000     -0.002050
     40.05972      1.45500     11.49850        -0.011527      0.000000      0.001392
     42.57995      0.00000     11.49901        -0.017942      0.000000      0.003743
     45.10394      1.45500     11.49991        -0.019027      0.000000      0.003646
     47.63175      0.00000     11.50070        -0.030877      0.000000      0.001081
     50.22740      1.45500     11.50076         0.093402      0.000000      0.005650
      2.98143      1.45500     12.77184        -0.005005      0.000000      0.018010
      2.98146      1.45500     10.22441        -0.003462      0.000000     -0.016854
      3.97291      0.00000      7.99453        -0.003208      0.000000      0.010738
      3.97270      0.00000     15.00183        -0.010669      0.000000     -0.010801
      5.58806      0.00000     12.73188         0.003731      0.000000      0.001770
      5.58811      0.00000     10.26457         0.005110      0.000000     -0.006642
      6.47873      1.45500      8.01496        -0.000819      0.000000      0.008693
      6.47859      1.45500     14.98139        -0.001533      0.000000     -0.008102
      8.13340      1.45500     12.73816         0.004020      0.000000      0.003813
      8.13340      1.45500     10.25824         0.002446      0.000000     -0.010189
      8.99333      0.00000      8.00393        -0.011580      0.000000      0.013222
      8.99324      0.00000     14.99245        -0.007396      0.000000     -0.013554
     10.66287      0.00000     12.74327         0.001398      0.000000      0.004602
     10.66288      0.00000     10.25306         0.000384      0.000000     -0.008857
     11.51138      1.45500      7.99884        -0.012256      0.000000      0.007132
     11.51128      1.45500     14.99741        -0.008990      0.000000     -0.009067
     13.18636      1.45500     12.74464        -0.000376      0.000000      0.009017
     13.18642      1.45500     10.25149        -0.000123      0.000000     -0.011008
     14.02995      0.00000      7.99698        -0.013768      0.000000      0.008662
     14.02979      0.00000     14.99909        -0.010898      0.000000     -0.008922
     15.70686      0.00000     12.74531         0.003777      0.000000      0.003992
     15.70681      0.00000     10.25094         0.003290      0.000000     -0.007244
     16.54850      1.45500      7.99630        -0.013267      0.000000      0.007316
     16.54844      1.45500     14.99983        -0.016112      0.000000     -0.007268
     18.22606      1.45500     12.74552         0.007207      0.000000      0.005064
     18.22605      1.45500     10.25052         0.007085      0.000000     -0.009060
     19.06693      0.00000      7.99559        -0.010891      0.000000      0.008779
     19.06676      0.00000     15.00038        -0.005620      0.000000     -0.010660
     20.74473      0.00000     12.74560         0.007301      0.000000      0.008074
     20.74481      0.00000     10.25037         0.006715      0.000000     -0.007378
     21.58548      1.45500      7.99553        -0.013065      0.000000      0.009917
     21.58522      1.45500     15.00044        -0.011079      0.000000     -0.009930
     23.26330      1.45500     12.74558         0.006074      0.000000      0.009236
     23.26335      1.45500     10.25044         0.007756      0.000000     -0.004022
     24.10407      0.00000      7.99580        -0.006058      0.000000      0.010725
     24.10384      0.00000     15.00028        -0.009153      0.000000     -0.009421
     25.78180      0.00000     12.74555         0.009303      0.000000      0.007571
     25.78189      0.00000     10.25068         0.010518      0.000000     -0.003602
     26.62279      1.45500      7.99632        -0.004940      0.000000      0.009523
     26.62278      1.45500     15.00003        -0.008007      0.000000     -0.008535
[...]
     33.34454      1.45500      8.50408         0.007894      0.000000     -0.010540
     35.86456      0.00000     14.49418         0.008891      0.000000      0.006482
     35.86481      0.00000      8.50402         0.011295      0.000000     -0.011096
     38.38479      1.45500     14.49375         0.011585      0.000000      0.007089
     38.38569      1.45500      8.50374         0.007492      0.000000     -0.007780
     40.90554      0.00000     14.49324         0.008012      0.000000      0.007210
     40.90709      0.00000      8.50375         0.002076      0.000000     -0.007104
     43.42763      1.45500     14.49304         0.009059      0.000000      0.011475
     43.42935      1.45500      8.50559         0.007534      0.000000     -0.010925
     45.95190      0.00000     14.49188         0.005888      0.000000      0.018755
     45.95390      0.00000      8.50878         0.002907      0.000000     -0.020394
     48.48517      1.45500     14.50215         0.023800      0.000000      0.027856
     48.48733      1.45500      8.49961         0.023735      0.000000     -0.029807
     51.03132      0.00000     14.52589        -0.032699      0.000000     -0.037518
     51.03394      0.00000      8.47621        -0.031511      0.000000      0.034671
    total drift:                                0.015061     -0.000000     -0.009781

  FREE ENERGIE OF THE ION-ELECTRON SYSTEM (eV)
  free  energy   TOTEN  =     -1220.80099096 eV

  energy  without entropy=    -1220.79824783  energy(sigma->0) =    -1220.79961940

 total charge

[...]

 magnetization (x)

# of ion     s       p       d       tot
  1        0.024   0.012   0.267   0.302
  2        0.006   0.006   0.183   0.194
  3        0.000   0.001   0.043   0.044
  4        0.000   0.000   0.006   0.006
  5        0.000   0.000   0.001   0.001
  6       -0.000  -0.000   0.000   0.000
  7       -0.000  -0.000   0.000  -0.000
  8       -0.000  -0.000  -0.000  -0.000
  9       -0.000  -0.000  -0.000  -0.000
 10       -0.000  -0.000   0.000   0.000
 11       -0.000  -0.000   0.000   0.000
 12        0.000  -0.000   0.000   0.000
 13        0.000   0.000   0.000   0.000
 14        0.000   0.000   0.000   0.000
 15        0.000   0.000  -0.000  -0.000
 16       -0.000   0.000  -0.002  -0.002
 17       -0.000  -0.000  -0.006  -0.006
 18       -0.000   0.000  -0.010  -0.010
 19        0.001   0.002   0.069   0.071
 20        0.001   0.003   0.050   0.053
 21        0.009   0.040   0.000   0.049
 22        0.009   0.040   0.000   0.049
 23        0.016   0.059   0.000   0.074
 24        0.016   0.059   0.000   0.074
 25        0.000   0.009   0.000   0.009
 26        0.000   0.009   0.000   0.009
 27        0.001   0.004   0.000   0.005
 28        0.001   0.004   0.000   0.005
 29        0.000   0.003   0.000   0.003
 30        0.000   0.003   0.000   0.003
 31        0.000   0.000   0.000   0.000
 32        0.000   0.000   0.000   0.000
 33        0.000   0.000   0.000   0.000
 34        0.000   0.000   0.000   0.000
 35        0.000   0.000   0.000   0.000
 36        0.000   0.000   0.000   0.000
 37        0.000   0.000   0.000   0.000
 38        0.000   0.000   0.000   0.000
 39        0.000   0.000   0.000   0.000
 40        0.000   0.000   0.000   0.000
 41        0.000   0.000   0.000   0.000
 42        0.000   0.000   0.000   0.000
 43        0.000   0.000   0.000   0.000
 44        0.000   0.000   0.000   0.000
 45        0.000   0.000   0.000   0.000
 46        0.000   0.000   0.000   0.000
 47        0.000   0.000   0.000   0.000
 48        0.000   0.000   0.000   0.000
 49        0.000   0.000   0.000   0.000
 50        0.000   0.000   0.000   0.000
 51        0.000   0.000   0.000   0.000
 52        0.000   0.000   0.000   0.000
 53        0.000   0.000   0.000   0.000
 54        0.000   0.000   0.000   0.000
 55        0.000   0.000   0.000   0.000
 56        0.000   0.000   0.000   0.000
 57        0.000   0.000   0.000   0.000
 58        0.000   0.000   0.000   0.000
 59        0.000   0.000   0.000   0.000
 60        0.000   0.000   0.000   0.000
[...]
126       -0.000   0.000   0.000   0.000
127       -0.000   0.000   0.000  -0.000
128       -0.000   0.000   0.000  -0.000
129       -0.000  -0.000   0.000  -0.000
130       -0.000  -0.000   0.000  -0.000
131       -0.000  -0.000   0.000  -0.000
132       -0.000  -0.000   0.000  -0.000
133       -0.000  -0.000   0.000  -0.000
134       -0.000  -0.000   0.000  -0.000
135        0.000  -0.000   0.000  -0.000
136        0.000  -0.000   0.000  -0.000
137        0.000   0.001   0.000   0.001
138        0.000   0.001   0.000   0.001
139       -0.005  -0.010   0.000  -0.016
140       -0.005  -0.010   0.000  -0.016
tot        0.297   1.925   0.602   2.825